# Solution for model SEYMOUR
# Objective value = 423
x0 1
x1 0
x2 1
x3 1
x4 0
x5 1
x6 1
x7 1
x8 1
x9 0
x10 1
x11 0
x12 0
x13 0
x14 0
x15 1
x16 0
x17 1
x18 1
x19 0
x20 0
x21 0
x22 1
x23 1
x24 0
x25 1
x26 0
x27 1
x28 0
x29 0
x30 0
x31 1
x32 1
x33 0
x34 1
x35 1
x36 1
x37 1
x38 0
x39 1
x40 1
x41 1
x42 1
x43 0
x44 1
x45 1
x46 1
x47 0
x48 0
x49 0
x50 1
x51 1
x52 0
x53 0
x54 1
x55 1
x56 1
x57 0
x58 1
x59 0
x60 0
x61 1
x62 1
x63 1
x64 0
x65 1
x66 0
x67 1
x68 1
x69 0
x70 1
x71 1
x72 0
x73 0
x74 0
x75 1
x76 0
x77 0
x78 0
x79 1
x80 0
x81 1
x82 1
x83 0
x84 1
x85 1
x86 1
x87 1
x88 1
x89 1
x90 1
x91 1
x92 0
x93 1
x94 1
x95 1
x96 0
x97 1
x98 1
x99 1
x100 0
x101 1
x102 1
x103 1
x104 0
x105 1
x106 1
x107 0
x108 1
x109 0
x110 1
x111 1
x112 0
x113 1
x114 0
x115 0
x116 1
x117 0
x118 1
x119 1
x120 1
x121 0
x122 1
x123 1
x124 0
x125 1
x126 1
x127 0
x128 0
x129 1
x130 1
x131 0
x132 1
x133 0
x134 0
x135 0
x136 1
x137 0
x138 0
x139 0
x140 1
x141 1
x142 1
x143 1
x144 1
x145 0
x146 0
x147 0
x148 0
x149 1
x150 0
x151 1
x152 1
x153 0
x154 1
x155 0
x156 1
x157 1
x158 1
x159 0
x160 1
x161 0
x162 1
x163 1
x164 1
x165 0
x166 1
x167 1
x168 0
x169 1
x170 1
x171 0
x172 0
x173 1
x174 0
x175 0
x176 0
x177 1
x178 1
x179 1
x180 0
x181 1
x182 1
x183 0
x184 0
x185 1
x186 1
x187 0
x188 0
x189 0
x190 0
x191 0
x192 1
x193 1
x194 0
x195 0
x196 0
x197 0
x198 0
x199 0
x200 1
x201 1
x202 1
x203 1
x204 1
x205 0
x206 0
x207 0
x208 0
x209 0
x210 0
x211 1
x212 0
x213 0
x214 1
x215 0
x216 1
x217 0
x218 1
x219 0
x220 0
x221 0
x222 0
x223 0
x224 0
x225 0
x226 0
x227 1
x228 1
x229 0
x230 0
x231 1
x232 0
x233 1
x234 1
x235 1
x236 0
x237 0
x238 0
x239 1
x240 0
x241 0
x242 1
x243 0
x244 1
x245 0
x246 1
x247 0
x248 0
x249 0
x250 1
x251 1
x252 0
x253 1
x254 1
x255 0
x256 0
x257 1
x258 0
x259 1
x260 1
x261 0
x262 0
x263 1
x264 0
x265 0
x266 1
x267 0
x268 1
x269 0
x270 1
x271 0
x272 1
x273 0
x274 0
x275 0
x276 0
x277 0
x278 1
x279 1
x280 0
x281 0
x282 0
x283 0
x284 1
x285 0
x286 1
x287 0
x288 1
x289 1
x290 0
x291 1
x292 1
x293 0
x294 0
x295 0
x296 0
x297 0
x298 0
x299 1
x300 0
x301 0
x302 0
x303 0
x304 0
x305 1
x306 0
x307 1
x308 1
x309 0
x310 0
x311 1
x312 0
x313 0
x314 1
x315 1
x316 1
x317 1
x318 0
x319 1
x320 0
x321 1
x322 0
x323 1
x324 0
x325 1
x326 0
x327 0
x328 1
x329 0
x330 0
x331 0
x332 1
x333 0
x334 1
x335 1
x336 0
x337 1
x338 0
x339 1
x340 1
x341 0
x342 1
x343 1
x344 0
x345 0
x346 1
x347 0
x348 0
x349 0
x350 1
x351 0
x352 0
x353 0
x354 0
x355 1
x356 1
x357 1
x358 1
x359 0
x360 0
x361 0
x362 0
x363 0
x364 0
x365 1
x366 0
x367 0
x368 0
x369 1
x370 0
x371 0
x372 1
x373 1
x374 1
x375 1
x376 1
x377 0
x378 0
x379 1
x380 0
x381 1
x382 0
x383 1
x384 0
x385 0
x386 1
x387 0
x388 1
x389 0
x390 1
x391 0
x392 0
x393 0
x394 1
x395 0
x396 1
x397 0
x398 0
x399 1
x400 0
x401 0
x402 0
x403 1
x404 0
x405 0
x406 0
x407 0
x408 0
x409 0
x410 0
x411 0
x412 1
x413 0
x414 0
x415 0
x416 1
x417 0
x418 0
x419 0
x420 0
x421 0
x422 0
x423 1
x424 1
x425 1
x426 1
x427 1
x428 0
x429 0
x430 1
x431 0
x432 1
x433 0
x434 0
x435 0
x436 1
x437 1
x438 1
x439 0
x440 1
x441 1
x442 0
x443 1
x444 0
x445 0
x446 0
x447 0
x448 0
x449 0
x450 1
x451 1
x452 1
x453 1
x454 0
x455 0
x456 1
x457 0
x458 0
x459 0
x460 1
x461 1
x462 1
x463 0
x464 0
x465 0
x466 0
x467 1
x468 0
x469 1
x470 0
x471 0
x472 0
x473 0
x474 0
x475 1
x476 1
x477 0
x478 1
x479 1
x480 0
x481 0
x482 1
x483 0
x484 0
x485 1
x486 1
x487 0
x488 0
x489 1
x490 0
x491 1
x492 0
x493 1
x494 0
x495 0
x496 0
x497 0
x498 1
x499 0
x500 1
x501 1
x502 0
x503 0
x504 0
x505 0
x506 0
x507 0
x508 1
x509 0
x510 0
x511 0
x512 0
x513 1
x514 0
x515 1
x516 1
x517 1
x518 1
x519 1
x520 1
x521 0
x522 0
x523 0
x524 0
x525 0
x526 0
x527 0
x528 1
x529 0
x530 0
x531 0
x532 0
x533 0
x534 0
x535 0
x536 0
x537 0
x538 0
x539 0
x540 0
x541 1
x542 0
x543 0
x544 0
x545 1
x546 0
x547 1
x548 1
x549 1
x550 0
x551 0
x552 0
x553 0
x554 0
x555 0
x556 0
x557 1
x558 0
x559 1
x560 0
x561 0
x562 1
x563 1
x564 1
x565 0
x566 1
x567 1
x568 0
x569 0
x570 1
x571 0
x572 0
x573 0
x574 0
x575 1
x576 1
x577 0
x578 0
x579 0
x580 0
x581 1
x582 0
x583 1
x584 0
x585 0
x586 0
x587 1
x588 0
x589 1
x590 0
x591 0
x592 0
x593 0
x594 1
x595 0
x596 0
x597 0
x598 0
x599 1
x600 0
x601 0
x602 1
x603 0
x604 0
x605 0
x606 0
x607 0
x608 0
x609 0
x610 1
x611 1
x612 0
x613 1
x614 0
x615 0
x616 0
x617 0
x618 0
x619 0
x620 0
x621 0
x622 1
x623 0
x624 0
x625 0
x626 0
x627 0
x628 0
x629 0
x630 0
x631 1
x632 0
x633 0
x634 0
x635 0
x636 0
x637 0
x638 0
x639 1
x640 0
x641 0
x642 0
x643 0
x644 0
x645 0
x646 1
x647 1
x648 0
x649 1
x650 0
x651 0
x652 1
x653 0
x654 0
x655 0
x656 1
x657 0
x658 0
x659 0
x660 0
x661 0
x662 1
x663 0
x664 0
x665 1
x666 0
x667 1
x668 0
x669 1
x670 0
x671 1
x672 0
x673 0
x674 0
x675 0
x676 1
x677 0
x678 0
x679 1
x680 0
x681 0
x682 0
x683 1
x684 0
x685 1
x686 1
x687 0
x688 0
x689 0
x690 0
x691 1
x692 0
x693 0
x694 0
x695 0
x696 0
x697 1
x698 0
x699 0
x700 0
x701 0
x702 0
x703 0
x704 0
x705 1
x706 0
x707 0
x708 0
x709 1
x710 0
x711 1
x712 1
x713 0
x714 0
x715 1
x716 1
x717 0
x718 1
x719 0
x720 0
x721 1
x722 1
x723 1
x724 0
x725 1
x726 1
x727 0
x728 1
x729 1
x730 0
x731 0
x732 1
x733 0
x734 0
x735 0
x736 0
x737 0
x738 1
x739 1
x740 0
x741 0
x742 0
x743 0
x744 0
x745 1
x746 1
x747 1
x748 0
x749 1
x750 0
x751 0
x752 1
x753 0
x754 0
x755 0
x756 0
x757 1
x758 0
x759 0
x760 0
x761 0
x762 0
x763 0
x764 0
x765 1
x766 0
x767 1
x768 1
x769 0
x770 0
x771 0
x772 0
x773 0
x774 0
x775 1
x776 0
x777 0
x778 0
x779 1
x780 0
x781 1
x782 0
x783 0
x784 0
x785 0
x786 0
x787 0
x788 0
x789 0
x790 0
x791 1
x792 0
x793 0
x794 0
x795 0
x796 1
x797 0
x798 1
x799 0
x800 0
x801 0
x802 0
x803 0
x804 0
x805 0
x806 0
x807 0
x808 1
x809 1
x810 0
x811 0
x812 1
x813 1
x814 0
x815 0
x816 0
x817 1
x818 0
x819 1
x820 0
x821 0
x822 0
x823 0
x824 1
x825 0
x826 0
x827 0
x828 0
x829 1
x830 0
x831 0
x832 0
x833 0
x834 0
x835 0
x836 0
x837 0
x838 0
x839 1
x840 0
x841 0
x842 0
x843 0
x844 0
x845 0
x846 0
x847 0
x848 0
x849 1
x850 0
x851 1
x852 0
x853 1
x854 0
x855 0
x856 0
x857 0
x858 0
x859 0
x860 0
x861 0
x862 0
x863 0
x864 0
x865 1
x866 0
x867 0
x868 0
x869 0
x870 0
x871 0
x872 0
x873 0
x874 0
x875 1
x876 0
x877 0
x878 0
x879 0
x880 0
x881 1
x882 0
x883 0
x884 0
x885 1
x886 0
x887 0
x888 0
x889 0
x890 1
x891 0
x892 0
x893 0
x894 0
x895 0
x896 0
x897 1
x898 0
x899 0
x900 0
x901 0
x902 1
x903 0
x904 0
x905 0
x906 1
x907 0
x908 0
x909 0
x910 0
x911 0
x912 0
x913 1
x914 0
x915 1
x916 0
x917 0
x918 0
x919 0
x920 0
x921 0
x922 0
x923 1
x924 1
x925 0
x926 1
x927 1
x928 0
x929 0
x930 0
x931 1
x932 0
x933 0
x934 0
x935 0
x936 1
x937 0
x938 1
x939 0
x940 0
x941 1
x942 0
x943 0
x944 1
x945 0
x946 0
x947 0
x948 0
x949 0
x950 0
x951 0
x952 0
x953 0
x954 1
x955 0
x956 0
x957 0
x958 0
x959 0
x960 0
x961 0
x962 0
x963 0
x964 0
x965 0
x966 1
x967 0
x968 0
x969 0
x970 1
x971 1
x972 0
x973 0
x974 0
x975 0
x976 0
x977 0
x978 1
x979 1
x980 0
x981 0
x982 0
x983 0
x984 1
x985 1
x986 0
x987 0
x988 0
x989 0
x990 0
x991 0
x992 0
x993 1
x994 0
x995 1
x996 0
x997 1
x998 0
x999 1
x1000 0
x1001 1
x1002 0
x1003 0
x1004 0
x1005 0
x1006 0
x1007 0
x1008 0
x1009 0
x1010 1
x1011 1
x1012 1
x1013 0
x1014 0
x1015 0
x1016 0
x1017 0
x1018 0
x1019 0
x1020 0
x1021 0
x1022 0
x1023 0
x1024 0
x1025 1
x1026 0
x1027 1
x1028 0
x1029 0
x1030 0
x1031 0
x1032 0
x1033 0
x1034 0
x1035 0
x1036 0
x1037 0
x1038 0
x1039 0
x1040 0
x1041 0
x1042 0
x1043 1
x1044 0
x1045 0
x1046 0
x1047 0
x1048 0
x1049 0
x1050 0
x1051 0
x1052 0
x1053 0
x1054 0
x1055 1
x1056 1
x1057 0
x1058 0
x1059 0
x1060 0
x1061 0
x1062 0
x1063 0
x1064 1
x1065 0
x1066 0
x1067 0
x1068 0
x1069 0
x1070 0
x1071 0
x1072 0
x1073 0
x1074 0
x1075 0
x1076 0
x1077 1
x1078 0
x1079 1
x1080 0
x1081 0
x1082 0
x1083 0
x1084 0
x1085 0
x1086 0
x1087 0
x1088 0
x1089 0
x1090 0
x1091 1
x1092 0
x1093 0
x1094 0
x1095 0
x1096 1
x1097 0
x1098 0
x1099 0
x1100 1
x1101 0
x1102 1
x1103 0
x1104 0
x1105 0
x1106 0
x1107 0
x1108 0
x1109 0
x1110 0
x1111 0
x1112 1
x1113 0
x1114 0
x1115 0
x1116 1
x1117 0
x1118 0
x1119 0
x1120 0
x1121 0
x1122 0
x1123 0
x1124 0
x1125 0
x1126 0
x1127 0
x1128 0
x1129 0
x1130 1
x1131 1
x1132 1
x1133 1
x1134 0
x1135 0
x1136 1
x1137 0
x1138 1
x1139 0
x1140 0
x1141 0
x1142 0
x1143 0
x1144 0
x1145 0
x1146 0
x1147 0
x1148 0
x1149 1
x1150 0
x1151 0
x1152 0
x1153 0
x1154 0
x1155 0
x1156 0
x1157 0
x1158 0
x1159 0
x1160 0
x1161 0
x1162 1
x1163 1
x1164 1
x1165 0
x1166 0
x1167 0
x1168 0
x1169 0
x1170 0
x1171 0
x1172 0
x1173 0
x1174 0
x1175 0
x1176 0
x1177 0
x1178 0
x1179 0
x1180 0
x1181 0
x1182 0
x1183 1
x1184 1
x1185 0
x1186 0
x1187 0
x1188 0
x1189 0
x1190 0
x1191 1
x1192 0
x1193 0
x1194 0
x1195 0
x1196 0
x1197 0
x1198 0
x1199 0
x1200 1
x1201 0
x1202 1
x1203 0
x1204 0
x1205 0
x1206 0
x1207 0
x1208 0
x1209 0
x1210 0
x1211 0
x1212 0
x1213 0
x1214 0
x1215 1
x1216 0
x1217 0
x1218 0
x1219 0
x1220 1
x1221 0
x1222 0
x1223 0
x1224 0
x1225 0
x1226 1
x1227 1
x1228 0
x1229 1
x1230 0
x1231 0
x1232 0
x1233 1
x1234 0
x1235 0
x1236 0
x1237 0
x1238 0
x1239 0
x1240 0
x1241 0
x1242 0
x1243 0
x1244 1
x1245 0
x1246 0
x1247 0
x1248 1
x1249 0
x1250 0
x1251 0
x1252 0
x1253 0
x1254 0
x1255 1
x1256 0
x1257 0
x1258 1
x1259 0
x1260 0
x1261 0
x1262 0
x1263 0
x1264 0
x1265 0
x1266 0
x1267 0
x1268 0
x1269 0
x1270 0
x1271 0
x1272 0
x1273 0
x1274 0
x1275 0
x1276 0
x1277 0
x1278 1
x1279 1
x1280 0
x1281 0
x1282 0
x1283 0
x1284 0
x1285 1
x1286 0
x1287 0
x1288 0
x1289 0
x1290 0
x1291 1
x1292 0
x1293 0
x1294 0
x1295 0
x1296 0
x1297 0
x1298 0
x1299 0
x1300 1
x1301 0
x1302 0
x1303 1
x1304 0
x1305 0
x1306 0
x1307 1
x1308 0
x1309 0
x1310 0
x1311 1
x1312 0
x1313 0
x1314 0
x1315 0
x1316 0
x1317 0
x1318 0
x1319 0
x1320 0
x1321 0
x1322 0
x1323 1
x1324 0
x1325 0
x1326 0
x1327 0
x1328 0
x1329 0
x1330 0
x1331 0
x1332 0
x1333 0
x1334 0
x1335 0
x1336 1
x1337 0
x1338 0
x1339 0
x1340 1
x1341 0
x1342 0
x1343 0
x1344 0
x1345 0
x1346 0
x1347 0
x1348 1
x1349 1
x1350 0
x1351 1
x1352 0
x1353 0
x1354 0
x1355 0
x1356 0
x1357 0
x1358 0
x1359 0
x1360 0
x1361 0
x1362 0
x1363 1
x1364 1
x1365 1
x1366 1
x1367 0
x1368 0
x1369 0
x1370 0
x1371 0
